CPLEX 12.6.2.0: mipgap=0.01
mipdisplay=3
MIP Presolve eliminated 12 rows and 6 columns.
Reduced MIP has 138 rows, 156 columns, and 474 nonzeros.
Reduced MIP has 78 binaries, 0 generals, 0 SOSs, and 0 indicators.
Found incumbent of value 54.000000 after 0.02 sec. (5.80 ticks)
Probing time = 0.01 sec. (0.11 ticks)
MIP Presolve modified 108 coefficients.
Reduced MIP has 138 rows, 156 columns, and 474 nonzeros.
Reduced MIP has 78 binaries, 0 generals, 0 SOSs, and 0 indicators.
Probing time = 0.00 sec. (0.11 ticks)
Clique table members: 126.
MIP emphasis: balance optimality and feasibility.
MIP search method: dynamic search.
Parallel mode: deterministic, using up to 4 threads.
Root relaxation solution time = 0.00 sec. (0.59 ticks)

        Nodes                                         Cuts/
   Node  Left     Objective  IInf  Best Integer    Best Bound    ItCnt     Gap

*     0+    0                           54.0000        0.0000           100.00%
Found incumbent of value 54.000000 after 0.03 sec. (7.13 ticks)
*     0+    0                           18.0000        0.0000           100.00%
Found incumbent of value 18.000000 after 0.03 sec. (7.13 ticks)
*     0+    0                            6.0000        0.0000           100.00%
Found incumbent of value 6.000000 after 0.03 sec. (7.13 ticks)
      0     0        0.0000    39        6.0000        0.0000       57  100.00%
      0     0        0.0000    40        6.0000      Cuts: 33       81  100.00%
      0     0        0.0000    41        6.0000      Cuts: 30      111  100.00%
*     0+    0                            5.0000        0.0000           100.00%
Found incumbent of value 5.000000 after 0.06 sec. (14.69 ticks)
      0     2        0.0000    41        5.0000        1.0000      111   80.00%
Elapsed time = 0.08 sec. (17.44 ticks, tree = 0.00 MB)
*    66+   39                            4.0000        1.0000            75.00%
                                                    Covers: 6                  
Found incumbent of value 4.000000 after 0.09 sec. (22.32 ticks)
*   818   417      integral     0        3.0000        2.0000     2491   33.33%
                                                      Cuts: 9                  
Found incumbent of value 3.000000 after 0.16 sec. (40.90 ticks)

GUB cover cuts applied:  3
Clique cuts applied:  5
Cover cuts applied:  13
Flow cuts applied:  1
Mixed integer rounding cuts applied:  3
Zero-half cuts applied:  1
Lift and project cuts applied:  3
Gomory fractional cuts applied:  7

Root node processing (before b&c):
  Real time             =    0.08 sec. (17.35 ticks)
Parallel b&c, 4 threads:
  Real time             =    0.14 sec. (40.88 ticks)
  Sync time (average)   =    0.03 sec.
  Wait time (average)   =    0.04 sec.
                          ------------
Total (root+branch&cut) =    0.22 sec. (58.23 ticks)
CPLEX 12.6.2.0: optimal integer solution within mipgap or absmipgap; objective 3
4423 MIP simplex iterations
1476 branch-and-bound nodes
absmipgap = 0.0166667, relmipgap = 0.00555556
No basis.
CB :=
1 2   0
1 3   1
2 1   1
2 3   0
3 1   0
3 2   1
;

